c Generated map
c Size: 8 * 8, weights in range: 1 to 10, walls: True, with ratio 0.05
c dim 7 of 10
c
p sp 64 100
c graph contains 64 nodes and 100 arcs
c
a 1 9 5
a 9 1 5
a 1 2 3
a 2 1 3
a 2 10 5
a 10 2 5
a 2 3 6
a 3 2 6
a 3 11 9
a 11 3 9
a 3 4 4
a 4 3 4
a 4 12 6
a 12 4 6
a 4 5 8
a 5 4 8
a 5 6 4
a 6 5 4
a 6 14 7
a 14 6 7
a 6 7 9
a 7 6 9
a 7 15 10
a 15 7 10
a 7 8 2
a 8 7 2
a 8 16 1
a 16 8 1
a 9 17 4
a 17 9 4
a 9 10 3
a 10 9 3
a 10 18 4
a 18 10 4
a 10 11 9
a 11 10 9
a 11 19 7
a 19 11 7
a 11 12 3
a 12 11 3
a 14 22 5
a 22 14 5
a 14 15 4
a 15 14 4
a 15 23 8
a 23 15 8
a 15 16 5
a 16 15 5
a 16 24 8
a 24 16 8
a 17 25 9
a 25 17 9
a 17 18 8
a 18 17 8
a 18 26 6
a 26 18 6
a 18 19 4
a 19 18 4
a 19 27 5
a 27 19 5
a 21 29 9
a 29 21 9
a 21 22 2
a 22 21 2
a 22 30 10
a 30 22 10
a 22 23 5
a 23 22 5
a 23 31 5
a 31 23 5
a 23 24 9
a 24 23 9
a 24 32 6
a 32 24 6
a 25 33 3
a 33 25 3
a 25 26 2
a 26 25 2
a 26 34 1
a 34 26 1
a 26 27 4
a 27 26 4
a 27 35 2
a 35 27 2
a 27 28 7
a 28 27 7
a 28 36 3
a 36 28 3
a 28 29 6
a 29 28 6
a 29 37 7
a 37 29 7
a 29 30 6
a 30 29 6
a 30 38 9
a 38 30 9
a 30 31 10
a 31 30 10
a 31 39 5
a 39 31 5
a 31 32 9
a 32 31 9
a 32 40 2
a 40 32 2
a 33 41 8
a 41 33 8
a 33 34 1
a 34 33 1
a 34 42 7
a 42 34 7
a 34 35 3
a 35 34 3
a 35 43 4
a 43 35 4
a 35 36 6
a 36 35 6
a 36 44 5
a 44 36 5
a 36 37 8
a 37 36 8
a 37 45 6
a 45 37 6
a 37 38 8
a 38 37 8
a 38 46 6
a 46 38 6
a 38 39 10
a 39 38 10
a 39 47 4
a 47 39 4
a 39 40 4
a 40 39 4
a 40 48 7
a 48 40 7
a 41 49 3
a 49 41 3
a 41 42 3
a 42 41 3
a 42 50 3
a 50 42 3
a 42 43 4
a 43 42 4
a 43 51 5
a 51 43 5
a 43 44 4
a 44 43 4
a 44 52 4
a 52 44 4
a 44 45 1
a 45 44 1
a 45 53 7
a 53 45 7
a 45 46 2
a 46 45 2
a 46 47 4
a 47 46 4
a 47 55 6
a 55 47 6
a 47 48 8
a 48 47 8
a 48 56 6
a 56 48 6
a 49 57 10
a 57 49 10
a 49 50 8
a 50 49 8
a 50 58 1
a 58 50 1
a 50 51 2
a 51 50 2
a 51 59 10
a 59 51 10
a 51 52 8
a 52 51 8
a 52 60 5
a 60 52 5
a 52 53 9
a 53 52 9
a 53 61 8
a 61 53 8
a 55 63 4
a 63 55 4
a 55 56 2
a 56 55 2
a 56 64 6
a 64 56 6
a 57 58 4
a 58 57 4
a 58 59 9
a 59 58 9
a 59 60 10
a 60 59 10
a 60 61 1
a 61 60 1
a 61 62 10
a 62 61 10
a 62 63 6
a 63 62 6
a 63 64 10
a 64 63 10
